x_1
x_2
x_3
x_4
x_5
x_6
x_7
x_8
x_9
x_10
x_11
x_12
x_13
x_14
x_15
x_3 x_2
x_4 x_3
x_6 x_1
x_6 x_2
x_6 x_5
x_7 x_3
x_7 x_4
x_7 x_5
x_8 x_1
x_8 x_3
x_8 x_5
x_8 x_6
x_9 x_1
x_9 x_4
x_9 x_5
x_9 x_7
x_9 x_8
x_10 x_1
x_10 x_3
x_10 x_5
x_10 x_6
x_10 x_7
x_10 x_8
x_11 x_3
x_11 x_4
x_11 x_5
x_11 x_7
x_12 x_1
x_12 x_3
x_12 x_5
x_12 x_6
x_12 x_7
x_13 x_3
x_13 x_4
x_13 x_5
x_13 x_6
x_13 x_8
x_13 x_10
x_14 x_2
x_14 x_3
x_14 x_5
x_14 x_6
x_14 x_7
x_14 x_8
x_14 x_11
x_14 x_12
x_15 x_2
x_15 x_4
x_15 x_6
x_15 x_7
x_15 x_12
x_15 x_13
x_15 x_14
